p tdp 78 77
10 74
63 21
47 35
71 53
73 5
31 6
29 55
70 43
49 61
28 22
36 73
68 39
55 58
42 76
69 42
33 17
32 31
60 46
72 45
19 40
45 28
25 9
23 61
42 62
16 56
74 11
30 19
24 10
65 70
78 55
9 66
47 52
74 26
44 45
36 13
27 40
51 45
21 60
75 36
24 8
41 34
35 6
72 40
4 76
20 17
57 75
54 71
15 14
1 64
30 64
15 75
38 3
37 60
77 23
40 65
35 12
34 76
63 24
48 33
2 7
61 12
31 25
25 20
59 18
67 50
56 59
19 16
39 13
2 67
11 9
2 22
75 61
74 54
41 2
59 46
38 72
14 55
